148 147 45 126 176 38 142 137 84 178 104 131 110 73 183 198 42 187 139 86 146 103 138 181 11 164 167 64 59 129 13 102 122 154 0 68 9 134 130 120 56 151 75 96 88 173 27 107 31 156 196 39 93 23 2 51 24 30 100 82 4 194 49 8 118 37 85 63 72 18 163 22 170 185 1 116 5 65 192 46 123 175 171 97 62 180 80 150 17 125 179 67 20 105 115 78 87 195 160 127 106 52 121 91 50 162 199 193 36 135 57 157 152 40 161 108 111 174 168 76 172 165 74 95 53 166 119 81 177 153 32 77 197 61 140 3 109 184 89 128 10 70 19 54 48 169 98 124 26 133 35 28 132 83 41 66 90 188 114 43 144 60 136 14 79 69 16 92 25 99 71 34 159 29 143 44 113 21 191 7 47 189 112 94 15 117 186 182 6 33 158 58 155 141 149 190 145 101 12 55 

